25 40
1 2 4
1 6 2
2 3 4
2 7 4
3 4 3
3 8 3
4 5 3
4 9 3
5 10 1
6 7 3
6 11 4
7 8 1
7 12 4
8 9 1
8 13 5
9 10 3
9 14 5
10 15 2
11 12 1
11 16 3
12 13 4
12 17 5
13 14 1
13 18 1
14 15 2
14 19 1
15 20 1
16 17 5
16 21 1
17 18 3
17 22 5
18 19 4
18 23 4
19 20 5
19 24 4
20 25 4
21 22 3
22 23 1
23 24 4
24 25 4
